20
0 1 0.56 0.3
0 2 0.78 0.34
0 3 0.56 0.33
0 4 0.4 0.36
0 5 0.52 0.25
0 6 0.64 0.21
0 7 0.6 0.19
0 8 0.52 0.34
0 9 0.5 0.23
0 10 0.55 0.13
0 11 0.72 0.22
0 12 0.62 0.28
0 13 0.48 0.12
0 14 0.74 0.18
0 15 0.52 0.2
0 16 0.72 0.22
0 17 0.49 0.28
0 18 0.63 0.38
0 19 0.44 0.08
1 2 0.42 0.2
1 3 0.82 0.18
1 4 0.58 0.32
1 5 0.72 0.31
1 6 0.72 0.31
1 7 0.7 0.25
1 8 0.66 0.1
1 9 0.5 0.3
1 10 0.58 0.23
1 11 0.62 0.29
1 12 0.48 0.34
1 13 0.39 0.18
1 14 0.5 0.26
1 15 0.46 0.2
1 16 0.68 0.08
1 17 0.33 0.13
1 18 0.66 0.26
1 19 0.56 0.32
2 3 0.68 0.12
2 4 0.7 0.33
2 5 0.5 0.25
2 6 0.4 0.31
2 7 0.5 0.2
2 8 0.81 0.24
2 9 0.39 0.24
2 10 0.54 0.3
2 11 0.98 0.23
2 12 0.54 0.2
2 13 0.46 0.22
2 14 0.64 0.21
2 15 0.5 0.15
2 16 0.64 0.12
2 17 0.31 0.07
2 18 0.7 0.2
2 19 0.66 0.27
3 4 0.52 0.21
3 5 0.34 0.13
3 6 0.64 0.33
3 7 0.82 0.22
3 8 0.91 0.23
3 9 0.57 0.22
3 10 0.74 0.25
3 11 0.56 0.21
3 12 0.51 0.31
3 13 0.71 0.29
3 14 0.79 0.27
3 15 0.68 0.27
3 16 0.54 0.21
3 17 0.52 0.05
3 18 0.22 0.08
3 19 0.55 0.37
4 5 0.78 0.33
4 6 0.68 0.16
4 7 0.82 0.27
4 8 0.64 0.22
4 9 0.66 0.43
4 10 0.82 0.24
4 11 0.75 0.42
4 12 0.41 0.36
4 13 0.76 0.34
4 14 0.85 0.43
4 15 0.54 0.37
4 16 0.78 0.34
4 17 0.72 0.26
4 18 0.56 0.13
4 19 0.69 0.43
5 6 0.73 0.2
5 7 0.48 0.31
5 8 0.58 0.32
5 9 0.68 0.34
5 10 0.59 0.12
5 11 0.5 0.22
5 12 0.62 0.32
5 13 0.76 0.35
5 14 0.82 0.38
5 15 0.62 0.37
5 16 0.34 0.25
5 17 0.39 0.18
5 18 0.56 0.2
5 19 0.62 0.33
6 7 0.36 0.11
6 8 0.47 0.33
6 9 0.38 0.3
6 10 0.14 0.08
6 11 0.81 0.37
6 12 0.46 0.2
6 13 0.53 0.18
6 14 0.5 0.32
6 15 0.71 0.38
6 16 0.39 0.26
6 17 0.57 0.38
6 18 0.75 0.29
6 19 0.67 0.29
7 8 0.7 0.29
7 9 0.74 0.32
7 10 0.5 0.19
7 11 0.64 0.26
7 12 0.63 0.09
7 13 0.64 0.07
7 14 0.8 0.27
7 15 0.52 0.29
7 16 0.6 0.17
7 17 0.52 0.27
7 18 0.67 0.3
7 19 0.5 0.27
8 9 0.42 0.35
8 10 0.33 0.25
8 11 0.56 0.29
8 12 0.42 0.24
8 13 0.55 0.22
8 14 0.7 0.3
8 15 0.33 0.24
8 16 0.5 0.12
8 17 0.58 0.23
8 18 0.7 0.19
8 19 0.55 0.3
9 10 0.24 0.22
9 11 0.64 0.33
9 12 0.63 0.23
9 13 0.52 0.33
9 14 0.44 0.05
9 15 0.68 0.11
9 16 0.49 0.23
9 17 0.4 0.17
9 18 0.5 0.3
9 19 0.68 0.15
10 11 0.76 0.34
10 12 0.6 0.28
10 13 0.39 0.23
10 14 0.64 0.27
10 15 0.57 0.3
10 16 0.25 0.18
10 17 0.43 0.3
10 18 0.61 0.32
10 19 0.53 0.21
11 12 0.96 0.35
11 13 0.9 0.33
11 14 0.51 0.33
11 15 0.54 0.34
11 16 0.63 0.32
11 17 0.8 0.16
11 18 0.78 0.29
11 19 0.8 0.23
12 13 0.6 0.16
12 14 0.56 0.18
12 15 0.5 0.24
12 16 0.55 0.26
12 17 0.64 0.27
12 18 0.7 0.31
12 19 0.53 0.28
13 14 0.55 0.28
13 15 0.6 0.22
13 16 0.42 0.1
13 17 0.5 0.26
13 18 0.86 0.37
13 19 0.44 0.2
14 15 0.38 0.06
14 16 0.58 0.18
14 17 0.74 0.22
14 18 0.57 0.3
14 19 0.3 0.1
15 16 0.32 0.12
15 17 0.64 0.22
15 18 0.74 0.24
15 19 0.42 0.12
16 17 0.35 0.16
16 18 0.76 0.29
16 19 0.28 0.24
17 18 0.5 0.13
17 19 0.63 0.32
18 19 0.5 0.3
